85.5 106.5 107.5 105.5 110.5 133.5 114.5 131.5 143.5 128.5 133.5 127.5 132.5 137.5 130.5 137.5 144.5 156.5 147.5 155.5 161.5 149.5 159.5 160.5 166.5 175.5 170.5 180.5 161.5 168.5 173.5 176.5 168.5 178.5 163.5 194.5 175.5 184.5 193.5 194.5 194.5 203.5 212.5 202.5 204.5 191.5 217.5 210.5 213.5 209.5 217.5 216.5 214.5 215.5 220.5 228.5